StudentsNr = 10;
InstructorsNr = 52;
DaysNr = 1;
SlotsPerDay = 15;
AvailabilitySlotsLenght = 15;
RoomNr = 2;
ProgrammNr = 1;
DegreeNr = 3;
RolesNr = 1;
CoursesNr = 2;
InstructorsProgramm = [{1}, {1}, {1}, {1}, {1}, {1}, {1}, {1}, {1}, {1}, {1}, {1}, {1}, {1}, {1}, {1}, {1}, {1}, {1}, {1}, {1}, {1}, {1}, {1}, {1}, {1}, {1}, {1}, {1}, {1}, {1}, {1}, {1}, {1}, {1}, {1}, {1}, {1}, {1}, {1}, {1}, {1}, {1}, {1}, {1}, {1}, {1}, {1}, {1}, {1}, {1}, {1}];
InstructorRolesPerProgramm = [|{2, 3, 4, 5, 8, 10, 12, 14, 15, 16, 17, 22, 23, 24, 25, 27, 28, 30, 31, 32, 37, 39, 40, 41, 45, 48, 50}|];
InstructorsAvailability = [|1, |1, |0, |0, |0, |1, |0, |0, |1, |1, |0, |1, |0, |0, |1, |1, |0, |0, |1, |1, |0, |0, |0, |0, |0, |0, |0, |0, |0, |1, |1, |1, |0, |1, |1, |0, |0, |0, |1, |0, |1, |1, |0, |0, |0, |0, |1, |0, |0, |1, |1, |1|];
StudentsProgramm = [1, 1, 1, 1, 1, 1, 1, 1, 1, 1];
StudentsDegree = [1, 1, 1, 2, 2, 1, 2, 1, 2, 2];
StudentsSupervisorId = [15, 22, 7, 22, 9, 32, 34, 34, 41, 47];
StudentsCourseIds = [{}, {}, {}, {}, {}, {}, {}, {}, {}, {}];
StudentsAvailability = [|0, |1, |0, |1, |0, |0, |0, |0, |0, |0|];
TheoryticalMinCard = [0, 0, 1, 0, 1, 0, 1, 1, 0, 1];
CoursesInstructorIds = [{1, 2, 3, 12, 22, 23, 32, 39, 42, 45, 49}, {1, 3, 4, 8, 9, 10, 13, 14, 15, 19, 20, 21, 23, 27, 28, 31, 33, 34, 36, 37, 38, 39, 40, 41, 42, 45, 47, 48, 52}];
RolesDemands = [4];
RolesContinuity = [];
ExamLen = [1, 1, 1, 1, 1, 1, 1, 1, 1, 1];
LunchTsMinLen = 0;
LunchStarts = [5..11];
SupervisorAvailable = 5;
OptimalLunchLenght = [2, 1];
OptimalStartTs = [2, 0];
OptimalFinishTs = [0, 15];
MinimizeRooms = 500;
RolesSoftContinuity = [|1|2|];
SameDegreeInRoom = 0;
Mergeability = 0;
